NAME : tsp_259_sol.txt
COMMENT : OR-Tools Guided Local Search
TYPE : TOUR
DIMENSION : 130
COST : 9331
STATUS : ROUTING_SUCCESS
GAP : 0.00% (Reference Solution)
TOUR_SECTION
1
16
128
20
59
46
3
73
66
27
7
78
62
90
2
12
39
111
36
92
60
33
84
56
105
108
130
5
112
117
109
70
86
57
83
97
61
75
21
69
38
98
10
64
87
45
54
31
63
113
67
19
127
68
82
116
110
4
89
104
6
96
40
88
118
49
25
115
24
11
103
101
124
22
37
123
48
125
23
99
8
95
52
71
58
55
107
35
44
65
119
18
43
26
85
15
81
76
13
126
28
72
30
91
14
42
77
100
80
41
93
9
106
94
17
74
47
79
34
32
102
29
129
122
114
50
120
51
121
53
-1
